(set-info :smt-lib-version 2.6)
(set-logic QF_NIA)
(set-info :source |
Generated by: Cristina Borralleras, Daniel Larraz, Albert Oliveras, Enric Rodriguez-Carbonell, Albert Rubio
Generated on: 2017-04-27
Generator: VeryMax
Application: Termination proving
Target solver: barcelogic
|)
(set-info :license "https://creativecommons.org/licenses/by/4.0/")
(set-info :category "industrial")
(set-info :status unsat)
(declare-fun Nl2__disjvr_0^01 () Int)
(declare-fun Nl2x_5^01 () Int)
(declare-fun lam0n0 () Int)
(declare-fun lam0n2 () Int)
(declare-fun lam0n3 () Int)
(declare-fun UndefCntr0_CT () Int)
(declare-fun Nl2CT1 () Int)
(declare-fun UndefCntr0___disjvr_0^0 () Int)
(declare-fun UndefCntr0_x_5^0 () Int)
(declare-fun lam0n1 () Int)
(declare-fun UndefCntr0_undef11 () Int)
(declare-fun lam1n0 () Int)
(declare-fun lam1n2 () Int)
(declare-fun lam1n3 () Int)
(declare-fun lam1n1 () Int)
(declare-fun lam2n0 () Int)
(declare-fun lam2n2 () Int)
(declare-fun lam2n3 () Int)
(declare-fun UndefCntr1_CT () Int)
(declare-fun lam2n1 () Int)
(declare-fun UndefCntr1___disjvr_0^0 () Int)
(declare-fun UndefCntr1_x_5^0 () Int)
(declare-fun UndefCntr1_undef22 () Int)
(declare-fun lam3n0 () Int)
(declare-fun lam3n2 () Int)
(declare-fun lam3n3 () Int)
(declare-fun lam3n1 () Int)
(declare-fun __disjvr_0^0 () Int)
(declare-fun x_5^0 () Int)
(declare-fun FV___disjvr_0^0_2 () Int)
(declare-fun FV_x_5^0_2 () Int)
(declare-fun lam5n0 () Int)
(declare-fun lam5n1 () Int)
(declare-fun lam6n0 () Int)
(declare-fun lam6n1 () Int)
(declare-fun UndefDef1undef22_CT () Int)
(declare-fun UndefDef1undef22___disjvr_0^0 () Int)
(declare-fun UndefDef1undef22_x_5^0 () Int)
(declare-fun lam7n0 () Int)
(declare-fun lam7n1 () Int)
(declare-fun lam8n0 () Int)
(declare-fun lam8n1 () Int)
(declare-fun FV_undef11_0 () Int)
(declare-fun FV___disjvr_0^0_0 () Int)
(declare-fun FV_x_5^0_0 () Int)
(declare-fun lam9n0 () Int)
(declare-fun lam9n1 () Int)
(declare-fun FV_x_5^0_3 () Int)
(declare-fun FV___disjvr_0^0_3 () Int)
(declare-fun FV_undef11_3 () Int)
(declare-fun FV_undef22_3 () Int)
(assert ( and ( <= ( - 1 ) Nl2__disjvr_0^01 ) ( <= Nl2__disjvr_0^01 1 ) ( <= ( - 1 ) Nl2x_5^01 ) ( <= Nl2x_5^01 1 ) ))
(assert ( or ( and ( >= lam0n0 0 ) ( >= lam0n2 0 ) ( >= lam0n3 0 ) ( > ( + ( * UndefCntr0_CT lam0n2 ) ( * Nl2CT1 lam0n3 ) ( - 1 ) ) 0 ) ( = ( + ( * UndefCntr0___disjvr_0^0 lam0n2 ) ( * Nl2__disjvr_0^01 lam0n3 ) ) 0 ) ( = ( + ( * ( - 1 ) lam0n0 ) ( * UndefCntr0_x_5^0 lam0n2 ) ( * Nl2x_5^01 lam0n3 ) ) 0 ) ( = ( + ( * 1 lam0n1 ) ( * UndefCntr0_undef11 lam0n2 ) ) 0 ) ) ( and ( >= lam1n0 0 ) ( >= lam1n2 0 ) ( >= lam1n3 0 ) ( > ( + ( * UndefCntr0_CT lam1n2 ) ( * Nl2CT1 lam1n3 ) ( - 1 Nl2CT1 ) ) 0 ) ( = ( + ( * UndefCntr0___disjvr_0^0 lam1n2 ) ( * Nl2__disjvr_0^01 lam1n3 ) ( - ( + 0 Nl2__disjvr_0^01 ) ) ) 0 ) ( = ( + ( * ( - 1 ) lam1n0 ) ( * UndefCntr0_x_5^0 lam1n2 ) ( * Nl2x_5^01 lam1n3 ) ( - ( + 0 Nl2x_5^01 ) ) ) 0 ) ( = ( + ( * 1 lam1n1 ) ( * UndefCntr0_undef11 lam1n2 ) ) 0 ) ) ))
(assert ( or ( and ( >= lam2n0 0 ) ( >= lam2n2 0 ) ( >= lam2n3 0 ) ( > ( + ( * UndefCntr1_CT lam2n2 ) ( * Nl2CT1 lam2n3 ) ( - 1 ) ) 0 ) ( = ( + ( * 1 lam2n1 ) ( * UndefCntr1___disjvr_0^0 lam2n2 ) ( * Nl2__disjvr_0^01 lam2n3 ) ) 0 ) ( = ( + ( * ( - 1 ) lam2n0 ) ( * UndefCntr1_x_5^0 lam2n2 ) ( * Nl2x_5^01 lam2n3 ) ) 0 ) ( = ( + ( * ( - 1 ) lam2n1 ) ( * UndefCntr1_undef22 lam2n2 ) ) 0 ) ) ( and ( >= lam3n0 0 ) ( >= lam3n2 0 ) ( >= lam3n3 0 ) ( > ( + ( * UndefCntr1_CT lam3n2 ) ( * Nl2CT1 lam3n3 ) ( - 1 ( + ( + Nl2CT1 ( * Nl2__disjvr_0^01 0 ) ) ( * Nl2x_5^01 ( - 1 ) ) ) ) ) 0 ) ( = ( + ( * 1 lam3n1 ) ( * UndefCntr1___disjvr_0^0 lam3n2 ) ( * Nl2__disjvr_0^01 lam3n3 ) ) 0 ) ( = ( + ( * ( - 1 ) lam3n0 ) ( * UndefCntr1_x_5^0 lam3n2 ) ( * Nl2x_5^01 lam3n3 ) ( - ( + 0 ( * Nl2x_5^01 1 ) ) ) ) 0 ) ( = ( + ( * ( - 1 ) lam3n1 ) ( * UndefCntr1_undef22 lam3n2 ) ( - ( + 0 ( * Nl2__disjvr_0^01 1 ) ) ) ) 0 ) ) ))
(assert ( <= ( + Nl2CT1 ( * Nl2__disjvr_0^01 FV___disjvr_0^0_2 ) ( * Nl2x_5^01 FV_x_5^0_2 ) ) 0 ))
(assert ( or ( not ( = UndefCntr0___disjvr_0^0 0 ) ) ( not ( = UndefCntr0_x_5^0 0 ) ) ( not ( = UndefCntr0_undef11 0 ) ) ( = UndefCntr0_CT 0 ) ))
(assert ( or ( and ( = UndefCntr0___disjvr_0^0 0 ) ( = UndefCntr0_x_5^0 0 ) ) ( not ( = UndefCntr0_undef11 0 ) ) ))
(assert ( or ( not ( = UndefCntr1___disjvr_0^0 0 ) ) ( not ( = UndefCntr1_x_5^0 0 ) ) ( not ( = UndefCntr1_undef22 0 ) ) ( = UndefCntr1_CT 0 ) ))
(assert ( or ( and ( = UndefCntr1___disjvr_0^0 0 ) ( = UndefCntr1_x_5^0 0 ) ) ( not ( = UndefCntr1_undef22 0 ) ) ))
(assert ( or ( and ( >= lam5n0 0 ) ( >= lam5n1 0 ) ( > ( + ( * Nl2CT1 lam5n1 ) ( - 1 ) ) 0 ) ( = ( * Nl2__disjvr_0^01 lam5n1 ) 0 ) ( = ( + ( * ( - 1 ) lam5n0 ) ( * Nl2x_5^01 lam5n1 ) ) 0 ) ) ( and ( and ( >= lam6n0 0 ) ( >= lam6n1 0 ) ( > ( + ( * Nl2CT1 lam6n1 ) ( - 1 ( + ( + 0 0 ) ( * ( - 1 ) UndefDef1undef22_CT ) ) ) ) 0 ) ( = ( + ( * Nl2__disjvr_0^01 lam6n1 ) ( - ( + 1 ( * UndefDef1undef22___disjvr_0^0 ( - 1 ) ) ) ) ) 0 ) ( = ( + ( * ( - 1 ) lam6n0 ) ( * Nl2x_5^01 lam6n1 ) ( - ( * UndefDef1undef22_x_5^0 ( - 1 ) ) ) ) 0 ) ) ( and ( >= lam7n0 0 ) ( >= lam7n1 0 ) ( > ( + ( * Nl2CT1 lam7n1 ) ( - 1 ( - ( + ( + 0 0 ) ( * ( - 1 ) UndefDef1undef22_CT ) ) ) ) ) 0 ) ( = ( + ( * Nl2__disjvr_0^01 lam7n1 ) ( - ( - ( + 1 ( * UndefDef1undef22___disjvr_0^0 ( - 1 ) ) ) ) ) ) 0 ) ( = ( + ( * ( - 1 ) lam7n0 ) ( * Nl2x_5^01 lam7n1 ) ( - ( - ( * UndefDef1undef22_x_5^0 ( - 1 ) ) ) ) ) 0 ) ) ( or ( = UndefCntr1_undef22 0 ) ( and ( >= lam8n0 0 ) ( >= lam8n1 0 ) ( > ( + ( * Nl2CT1 lam8n1 ) ( - 1 ( + ( + ( + UndefCntr1_CT 0 ) 0 ) ( * UndefCntr1_undef22 UndefDef1undef22_CT ) ) ) ) 0 ) ( = ( + ( * Nl2__disjvr_0^01 lam8n1 ) ( - ( + UndefCntr1___disjvr_0^0 ( * UndefDef1undef22___disjvr_0^0 UndefCntr1_undef22 ) ) ) ) 0 ) ( = ( + ( * ( - 1 ) lam8n0 ) ( * Nl2x_5^01 lam8n1 ) ( - ( + UndefCntr1_x_5^0 ( * UndefDef1undef22_x_5^0 UndefCntr1_undef22 ) ) ) ) 0 ) ) ) ) ))
(assert ( or ( = UndefCntr0_undef11 0 ) ( and ( and ( = UndefCntr0___disjvr_0^0 0 ) ( = UndefCntr0_x_5^0 0 ) ) ( or ( and ( = FV_undef11_0 0 ) ( <= ( + UndefCntr0_CT ( * UndefCntr0_undef11 FV_undef11_0 ) ( * UndefCntr0___disjvr_0^0 FV___disjvr_0^0_0 ) ( * UndefCntr0_x_5^0 FV_x_5^0_0 ) ) 0 ) ) ( and ( = FV_undef11_0 0 ) ( <= ( + UndefCntr0_CT ( * UndefCntr0_undef11 FV_undef11_0 ) ( * UndefCntr0___disjvr_0^0 FV___disjvr_0^0_0 ) ( * UndefCntr0_x_5^0 FV_x_5^0_0 ) ) 0 ) ) ) ) ))
(assert ( and ( >= lam9n0 0 ) ( >= lam9n1 0 ) ( > ( + ( * 1 lam9n0 ) ( * Nl2CT1 lam9n1 ) ( - 1 ) ) 0 ) ( = ( * Nl2__disjvr_0^01 lam9n1 ) 0 ) ( = ( + ( * 1 lam9n0 ) ( * Nl2x_5^01 lam9n1 ) ) 0 ) ))
(assert ( and ( <= ( + Nl2CT1 ( * Nl2x_5^01 FV_x_5^0_3 ) ( * Nl2__disjvr_0^01 FV___disjvr_0^0_3 ) ) 0 ) ( or ( and ( <= ( * ( - 1 ) FV_x_5^0_3 ) 0 ) ( = FV_undef11_3 0 ) ) ( and ( <= ( * ( - 1 ) FV_x_5^0_3 ) 0 ) ( = ( + FV___disjvr_0^0_3 ( * ( - 1 ) FV_undef22_3 ) ) 0 ) ) ) ))
(check-sat)
(exit)
